NAME : city031.15368.tour
COMMENT : Length = 15368
COMMENT : Found by LKH-3 [Keld Helsgaun] Mon Sep  2 17:56:54 2024
TYPE : TOUR
DIMENSION : 31
TOUR_SECTION
1
15
14
12
13
7
10
9
8
2
4
16
5
6
11
23
19
17
3
18
22
21
20
24
25
26
28
27
30
31
29
-1
EOF
